rc2_10_6

VEHICLE
NUMBER   CAPACITY
250     1000

CUSTOMER
CUST NO. XCOORD.  YCOORD.  DEMAND  READY TIME DUE DATE  SERVICE TIME

0   250    250     0     0    7284     0
388 177 156 25 609 849 10
305 111 178 18 506 746 10
43 111 192 11 4738 4978 10
818 133 273 20 357 597 10
584 173 182 25 291 531 10
425 103 177 28 2446 2686 10
7 133 202 33 1782 2022 10
476 176 199 28 239 479 10
979 131 246 17 3268 3508 10
536 105 181 19 6065 6305 10
955 153 235 10 273 513 10
508 134 211 35 422 662 10
799 146 188 6 4880 5120 10
562 120 261 5 3113 3353 10
27 130 140 17 716 956 10
189 149 214 7 1868 2108 10
199 148 208 22 2046 2286 10
904 143 158 12 490 730 10
817 130 247 17 360 600 10
789 140 137 32 2219 2459 10
